c --- [ banner ] -------------------------------------------------------------
c 
c CaDiCaL SAT Solver
c Copyright (c) 2016-2023 A. Biere, M. Fleury, N. Froleyks, K. Fazekas, F. Pollitt
c 
c Version 1.9.5
c g++ (Ubuntu 11.4.0-1ubuntu1~22.04) 11.4.0 -Wall -Wextra -O3 -DNDEBUG -static
c Thu Mar 7 06:16:21 CET 2024 Linux pc101447 6.5.0-17-generic x86_64
c 
c --- [ limit ] --------------------------------------------------------------
c 
c setting time limit to 3600 seconds real time (due to '-t 3600')
c 
c --- [ parsing input ] ------------------------------------------------------
c 
c reading DIMACS file from '/home/oliveras/SAT-comp-2023//3ff114cc7bee4f39fa56a0325e605c2d-stb_588_138.apx_2_DC-ST.cnf'
c opening file to read '/home/oliveras/SAT-comp-2023//3ff114cc7bee4f39fa56a0325e605c2d-stb_588_138.apx_2_DC-ST.cnf'
c found 'p cnf 1176 13650' header
c parsed 13650 clauses in 0.01 seconds process time
c 
c --- [ options ] ------------------------------------------------------------
c 
c   --seed=1                       (different from default '0')
c 
c --- [ solving ] ------------------------------------------------------------
c 
c time measured in process time since initialization
c 
c  seconds  reductions  redundant  irredundant
c         MB    restarts       trail     variables
c          level   conflicts       glue       remaining
c 
c *  0.01  2  0 0   0    0    0  0% 0 13472 1082 92%
c {  0.01  2  0 0   0    0    0  0% 0 13472 1082 92%
c -  0.03  3 44 1   2  302  284 57% 19 11890 1082 92%
c -  0.07  3 28 2   2  903  664 58% 14 11890 1082 92%
c }  0.07  3 27 2   2 1003  749 58% 14 11890 1082 92%
c [  0.07  3  0 2   2 1003  749  0% 0 11890 1082 92%
c O  0.07  3 12 2   2 1004  750 52% 4 11890 1082 92%
c -  0.11  3 13 3   2 1805  989 62% 10 11890 1082 92%
c ]  0.17  3 14 3   3 3004 1941 61% 11 11890 1082 92%
c {  0.17  3 27 3   3 3004 1941 58% 14 11890 1082 92%
c F  0.17  3 27 3   3 3005 1942 58% 14 11890 1082 92%
c -  0.17  3 27 4   3 3006 1352 58% 14 11890 1082 92%
c -  0.24  3 18 5   3 4506 1812 59% 11 11890 1082 92%
c d  0.27  4 17 5  14 5003 2221 60% 11 10800 539 46%
c 2  0.27  4 17 5  14 5003 2221 60% 11 3961 539 46%
c p  0.27  4 17 5  14 5003 2227 60% 11 3961 539 46%
c #  0.31  3 16 5  40 6009 3075 58% 11 3961 539 46%
c -  0.32  4 16 6  40 6311 2122 58% 11 3961 539 46%
c }  0.35  4 16 6  40 7004 2713 59% 11 3961 539 46%
c [  0.35  4 14 6  40 7004 2713 133% 11 3961 539 46%
c 
c  seconds  reductions  redundant   irredundant
c         MB    restarts       trail      variables
c          level   conflicts        glue      remaining
c 
c s  0.36  4 14 6  41 7277 2872 124% 11 3961 539 46%
c t  0.37  4 14 6  41 7277 2869 124% 11 3958 539 46%
c e  0.37  4 14 6  41 7277 2827 124% 11 3885 527 45%
c s  0.37  4 14 6  41 7277 2826 124% 11 3885 527 45%
c -  0.42  4 14 7  41 8411 2415 103% 11 3885 527 45%
c I  0.49  4 14 7  42 10011 3540 89% 11 3885 527 45%
c -  0.52  4 15 8  43 10813 2863 85% 12 3885 527 45%
c -  0.62  4 15 9  45 13513 3266 77% 12 3885 527 45%
c p  0.68  4 15 9  45 15003 4459 75% 11 3885 527 45%
c ]  0.68  4 15 9  45 15004 4460 75% 11 3885 527 45%
c {  0.68  4 16 9  45 15004 4460 59% 11 3885 527 45%
c B  0.68  4 16 9  45 15014 4470 59% 11 3885 527 45%
c -  0.73  4 15 10  57 16513 3823 59% 10 3885 527 45%
c -  0.84  4 14 11  94 19813 4407 58% 10 3885 527 45%
c W  0.89  4 14 11  96 21015 5344 58% 10 3885 527 45%
c -  0.98  4 14 12 226 23413 5049 58% 10 3885 527 45%
c -  1.12  5 14 13 349 27316 5427 58% 10 3885 527 45%
c F  1.14  5 13 13 349 28018 5946 58% 10 3885 527 45%
c p  1.21  5 13 13 424 30004 7460 58% 10 3885 527 45%
c }  1.25  5 13 13 473 31004 8293 58% 10 3885 527 45%
c 
c  seconds  reductions    redundant  irredundant
c         MB     restarts        trail     variables
c          level     conflicts       glue      remaining
c 
c [  1.25  5 15 13 473 31004 8293 75% 11 3885 527 45%
c -  1.27  4 15 14 473 31516 5932 74% 11 3885 527 45%
c -  1.45  4 15 15 476 36016 6431 69% 11 3885 527 45%
c B  1.45  4 15 15 476 36022 6435 69% 11 3885 527 45%
c -  1.65  4 15 16 479 40816 6716 67% 11 3885 527 45%
c W  1.84  4 15 16 480 45025 9927 65% 11 3885 527 45%
c -  1.88  4 15 17 480 45916 7370 65% 11 3885 527 45%
c p  2.07  4 15 17 481 50006 10709 65% 12 3885 527 45%
c -  2.13  5 15 18 481 51317 7757 65% 12 3885 527 45%
c O  2.30  5 16 18 482 55027 10592 64% 12 3885 527 45%
c -  2.40  5 16 19 484 57018 7971 64% 12 3885 527 45%
c ]  2.69  5 15 19 488 63007 12040 64% 12 3885 527 45%
c {  2.69  5 13 19 488 63007 12040 58% 10 3885 527 45%
c -  2.70  4 13 20 488 63019 7995 58% 10 3885 527 45%
c B  2.83  4 13 20 676 66029 10394 58% 10 3885 527 45%
c -  2.97  5 13 21 782 69319 9007 58% 10 3885 527 45%
c s  2.98  5 13 21 782 69319 8712 58% 10 3885 527 45%
c v  2.98  5 13 21 782 69319 8712 58% 10 3885 527 45%
c w  2.99  5 13 21 782 69319 8698 58% 10 3885 527 45%
c s  3.00  5 13 21 782 69319 8667 58% 10 3885 527 45%
c 
c  seconds  reductions    redundant  irredundant
c         MB     restarts        trail     variables
c          level     conflicts       glue      remaining
c 
c ^  3.00  5 13 21 782 69319 8667 58% 10 3885 527 45%
c p  3.24  5 13 21 917 75009 12715 58% 10 3885 527 45%
c -  3.28  5 13 22 917 75920 9097 57% 9 3885 527 45%
c W  3.39  5 13 22 1138 78030 10758 58% 9 3885 527 45%
c -  3.61  6 13 23 1451 82825 10449 58% 9 3885 527 45%
c s  3.79  6 13 23 1640 86613 13082 58% 9 3885 527 45%
c w  3.79  6 13 23 1640 86613 13080 58% 9 3885 527 45%
c e  3.80  6 13 23 1640 86613 13053 58% 9 3886 526 45%
c s  3.81  6 13 23 1640 86613 13049 58% 9 3886 526 45%
c ^  3.81  6 13 23 1640 86613 13049 58% 9 3886 526 45%
c -  3.98  6 13 24 1832 90026 10822 58% 9 3886 526 45%
c #  4.03  6 13 24 2007 91032 11705 58% 9 3886 526 45%
c -  4.32  6 12 25 2152 97526 11763 58% 9 3886 526 45%
c p  4.68  6 12 25 2543 105010 17155 58% 9 3886 526 45%
c B  4.68  6 12 25 2543 105035 17176 58% 9 3886 526 45%
c -  4.70  6 12 26 2587 105326 12167 58% 9 3886 526 45%
c s  4.92  6 12 26 2846 109696 15232 58% 9 3886 526 45%
c w  4.93  6 12 26 2846 109696 15232 58% 9 3886 526 45%
c e  4.93  6 12 26 2846 109696 14959 58% 9 3892 523 44%
c s  4.94  6 12 26 2846 109696 14934 58% 9 3892 523 44%
c 
c  seconds  reductions       redundant irredundant
c         MB     restarts           trail    variables
c          level      conflicts         glue     remaining
c 
c -  5.15  7 12 27 3170 113426 12804 58% 9 3892 523 44%
c W  5.49  7 12 27 3415 120042 17640 57% 9 3892 523 44%
c -  5.58  7 12 28 3568 121829 13163 57% 9 3892 523 44%
c }  5.83  7 12 28 3876 127008 16890 58% 9 3892 523 44%
c [  5.83  7 15 28 3876 127008 16890 64% 12 3892 523 44%
c -  6.00  7 15 29 3876 130529 13549 64% 12 3892 523 44%
c B  6.27  7 15 29 3880 136044 17489 63% 12 3892 523 44%
c -  6.46  7 15 30 3883 139531 14257 63% 12 3892 523 44%
c p  6.49  7 15 30 3883 140013 14667 63% 12 3892 523 44%
c -  6.96  7 15 31 3884 148831 14394 62% 12 3892 523 44%
c W  7.22  7 15 31 3885 153045 17625 62% 12 3892 523 44%
c -  7.57  7 15 32 3885 158433 14979 62% 11 3892 523 44%
c -  8.16  7 15 33 3885 168333 16119 61% 12 3892 523 44%
c I  8.32  7 15 33 3888 171046 18283 61% 12 3892 523 44%
c -  8.76  7 16 34 3892 178534 17302 61% 12 3892 523 44%
c p  8.87  7 17 34 3892 180015 18610 61% 13 3892 523 44%
c -  9.41  7 17 35 3898 189034 17725 60% 13 3892 523 44%
c B  9.46  7 17 35 3899 190047 18594 60% 13 3892 523 44%
c - 10.03  7 17 36 3900 199834 18202 60% 13 3892 523 44%
c W 10.71  7 17 36 3907 210048 26828 61% 13 3892 523 44%
c 
c  seconds  reductions       redundant  irredundant
c         MB     restarts           trail     variables
c          level      conflicts         glue      remaining
c 
c - 10.78  9 17 37 3907 210935 18598 61% 13 3892 523 44%
c - 11.51  9 17 38 3913 222338 17908 60% 13 3892 523 44%
c p 11.69  9 17 38 3914 225019 19874 60% 13 3892 523 44%
c O 12.09  9 17 38 3915 231050 24461 60% 13 3892 523 44%
c - 12.27  9 17 39 3915 234038 18651 61% 13 3892 523 44%
c - 13.02  9 17 40 3916 246040 18775 61% 13 3892 523 44%
c B 13.45  9 17 40 3917 253051 24575 61% 13 3892 523 44%
c ] 13.58  9 17 40 3917 255008 26004 61% 13 3892 523 44%
c { 13.58  9 12 40 3917 255008 26004 58% 9 3892 523 44%
c - 13.82 10 12 41 4018 258340 19097 57% 9 3892 523 44%
c s 13.84 10 12 41 4018 258340 18963 57% 9 3892 523 44%
c w 13.86 10 12 41 4018 258340 18955 57% 9 3892 523 44%
c - 14.69 10 12 42 5060 270941 20131 57% 9 3892 523 44%
c p 14.94 10 12 42 5227 275019 23123 57% 9 3892 523 44%
c F 15.00 10 12 42 5281 276053 23827 57% 9 3892 523 44%
c - 15.47 10 12 43 5527 283844 20844 57% 9 3892 523 44%
c - 16.28 10 12 44 6260 297045 21607 57% 9 3892 523 44%
c B 16.48 10 12 44 6639 300054 23874 57% 9 3892 523 44%
c - 17.15 10 12 45 7455 310546 23439 57% 9 3892 523 44%
c - 18.04 10 12 46 8164 324346 23018 58% 9 3892 523 44%
c 
c  seconds  reductions       redundant irredundant
c         MB     restarts           trail    variables
c          level      conflicts         glue     remaining
c 
c W 18.14 10 12 46 8189 325057 23535 58% 9 3892 523 44%
c - 19.02 10 12 47 8885 338447 23534 58% 9 3892 523 44%
c # 19.87 10 12 47 9947 351059 32674 58% 9 3892 523 44%
c - 20.01 12 12 48 10074 352848 24926 58% 9 3892 523 44%
c - 21.00 11 12 49 10864 367548 25451 58% 9 3892 523 44%
c B 21.70 11 12 49 11564 378060 32658 58% 9 3892 523 44%
c - 22.06 12 12 50 12077 382548 26572 58% 9 3892 523 44%
c p 22.59 12 12 50 12725 390021 31700 58% 9 3892 523 44%
c - 23.19 11 12 51 13350 397848 27182 58% 9 3892 523 44%
c W 23.82 11 12 51 13632 406065 32562 58% 9 3892 523 44%
c - 24.39 13 12 52 14305 413448 27295 58% 9 3892 523 44%
c - 25.49 11 12 53 15159 429349 27967 58% 9 3892 523 44%
c F 25.89 11 12 53 15515 435068 31986 58% 9 3892 523 44%
c - 26.68 13 12 54 16215 445549 28608 58% 9 3892 523 44%
c s 26.72 13 12 54 16215 445549 27767 58% 9 3892 523 44%
c w 26.76 13 12 54 16215 445549 27756 58% 9 3892 523 44%
c p 27.37 13 11 54 16342 455023 33871 58% 9 3892 523 44%
c - 27.91 11 11 55 16802 462051 28291 58% 9 3892 523 44%
c B 28.11 11 11 55 16876 465069 30301 58% 9 3892 523 44%
c - 29.16 13 11 56 17971 478851 30457 58% 9 3892 523 44%
c 
c  seconds  reductions        redundant irredundant
c         MB      restarts           trail    variables
c          level       conflicts         glue     remaining
c 
c - 30.48 11 11 57 19264 495951 30631 57% 9 3892 523 44%
c W 30.57 11 11 57 19264 496071 30702 57% 9 3892 523 44%
c } 31.60 11 11 57 20060 511008 40587 58% 9 3892 523 44%
c [ 31.60 11 17 57 20060 511008 40587 61% 13 3892 523 44%
c - 31.77 13 17 58 20060 513352 30984 61% 13 3892 523 44%
c p 32.59 13 16 58 20060 525024 39577 61% 12 3892 523 44%
c W 32.89 13 16 58 20060 528072 42327 61% 13 3892 523 44%
c - 33.10 13 17 59 20060 531052 32814 61% 13 3892 523 44%
c - 34.48 14 17 60 20066 549054 32733 60% 13 3892 523 44%
c I 35.48 14 17 60 20073 561078 42095 60% 13 3892 523 44%
c - 35.96 14 18 61 20075 567354 33150 60% 13 3892 523 44%
c - 37.57 14 19 62 20082 585956 35225 59% 14 3892 523 44%
c B 38.38 14 20 62 20088 595079 43111 59% 14 3892 523 44%
c p 38.77 14 20 62 20090 600025 47333 59% 14 3892 523 44%
c - 39.14 14 20 63 20090 604857 35478 59% 14 3892 523 44%
c - 40.64 12 20 64 20091 624057 34393 59% 14 3892 523 44%
c W 41.23 12 19 64 20096 630083 39094 59% 14 3892 523 44%
c - 42.34 15 19 65 20104 643557 34222 59% 14 3892 523 44%
c - 43.92 15 18 66 20111 663357 33825 59% 14 3892 523 44%
c s 43.97 15 18 66 20111 663357 33133 59% 14 3892 523 44%
c 
c  seconds  reductions        redundant  irredundant
c         MB      restarts           trail     variables
c          level       conflicts         glue      remaining
c 
c w 44.02 15 18 66 20111 663357 33125 59% 14 3892 523 44%
c O 44.22 15 18 66 20113 666084 35327 60% 14 3892 523 44%
c p 45.26 15 18 66 20120 680026 44969 60% 14 3892 523 44%
c - 45.52 15 18 67 20121 683457 33433 60% 14 3892 523 44%
c B 47.03 15 18 67 20122 703089 48407 60% 14 3892 523 44%
c - 47.12 18 18 68 20122 703859 34986 60% 14 3892 523 44%
c - 48.91 18 18 69 20123 724559 35177 61% 14 3892 523 44%
c W 50.46 18 17 69 20124 741092 47524 61% 14 3892 523 44%
c - 50.86 18 17 70 20124 745559 36230 61% 13 3892 523 44%
c p 52.50 18 17 70 20124 765029 50808 61% 13 3892 523 44%
c - 52.66 18 17 71 20124 766859 37502 61% 13 3892 523 44%
c I 53.65 18 17 71 20124 780097 48037 61% 13 3892 523 44%
c - 54.34 18 18 72 20124 788460 39844 60% 14 3892 523 44%
c - 56.34 18 20 73 20127 810360 41150 60% 15 3892 523 44%
c B 57.18 18 20 73 20132 820098 49591 60% 15 3892 523 44%
c - 58.24 18 20 74 20139 832562 40592 60% 15 3892 523 44%
c p 60.28 18 19 74 20148 855029 57445 60% 15 3892 523 44%
c - 60.29 18 19 75 20148 855062 40150 60% 15 3892 523 44%
c W 60.97 18 20 75 20152 861100 44929 60% 15 3892 523 44%
c - 62.52 18 19 76 20155 877864 40627 60% 15 3892 523 44%
c 
c  seconds  reductions        redundant  irredundant
c         MB      restarts           trail     variables
c          level       conflicts         glue      remaining
c 
c - 64.79 18 19 77 20162 900964 41949 60% 15 3892 523 44%
c s 64.86 18 19 77 20162 900964 41761 60% 15 3892 523 44%
c w 64.93 18 19 77 20162 900964 41748 60% 15 3892 523 44%
c O 65.15 18 19 77 20162 903102 43371 60% 15 3892 523 44%
c - 67.05 22 18 78 20171 924365 40886 60% 14 3892 523 44%
c B 69.03 22 18 78 20184 946105 58719 60% 14 3892 523 44%
c - 69.26 18 18 79 20184 948065 43866 60% 14 3892 523 44%
c p 69.46 18 18 79 20185 950029 45423 60% 14 3892 523 44%
c - 71.65 22 18 80 20186 972065 43133 60% 14 3892 523 44%
c W 73.40 22 18 80 20187 990110 57812 61% 14 3892 523 44%
c - 74.03 18 18 81 20187 996367 44388 61% 14 3892 523 44%
c - 76.37 22 19 82 20196 1020968 44194 60% 14 3892 523 44%
c ] 76.55 22 19 82 20197 1023011 45852 60% 14 3892 523 44%
c { 76.55 22 11 82 20197 1023011 45852 58% 9 3892 523 44%
c # 77.71 22 11 82 20886 1035112 54087 58% 9 3892 523 44%
c - 78.84 18 11 83 21532 1045872 43286 57% 9 3892 523 44%
c p 79.23 18 11 83 21754 1050029 46153 57% 9 3892 523 44%
c - 81.19 20 11 84 22667 1071072 44769 57% 9 3892 523 44%
c B 82.11 20 11 84 23363 1081114 51124 57% 9 3892 523 44%
c - 83.67 23 11 85 24526 1096576 46222 57% 9 3892 523 44%
c 
c  seconds  reductions         redundant irredundant
c         MB      restarts            trail    variables
c          level        conflicts         glue     remaining
c 
c - 86.14 23 11 86 26307 1122376 47094 57% 9 3892 523 44%
c W 86.82 23 11 86 26575 1128117 50627 57% 9 3892 523 44%
c - 88.71 23 11 87 27871 1148476 47695 57% 9 3892 523 44%
c - 91.16 23 11 88 29226 1174878 48072 57% 9 3892 523 44%
c s 91.26 23 11 88 29226 1174878 46381 57% 9 3892 523 44%
c w 91.33 23 11 88 29226 1174878 46368 57% 9 3892 523 44%
c F 91.45 23 11 88 29325 1176118 47199 57% 9 3892 523 44%
c - 93.85 23 11 89 31203 1201578 48935 57% 9 3892 523 44%
c B 95.99 23 11 89 32438 1225120 63819 57% 9 3892 523 44%
c - 96.37 24 11 90 32629 1228580 49320 57% 9 3892 523 44%
c - 98.96 24 11 91 34381 1255880 50199 57% 9 3892 523 44%
c W 100.96 24 11 91 35447 1275122 62675 57% 9 3892 523 44%
c - 101.74 24 11 92 35827 1283481 51328 57% 9 3892 523 44%
c - 104.46 24 11 93 37546 1311382 51977 57% 9 3892 523 44%
c # 105.79 24 11 93 38089 1326124 60994 57% 9 3892 523 44%
c - 107.04 24 11 94 38881 1339582 52735 57% 9 3892 523 44%
c - 109.87 24 11 95 41132 1368082 54183 57% 9 3892 523 44%
c B 110.87 24 11 95 42087 1378125 60661 57% 9 3892 523 44%
c - 112.89 25 11 96 43471 1396884 54291 57% 9 3892 523 44%
c - 115.72 25 11 97 45735 1425986 55045 57% 9 3892 523 44%
c 
c  seconds   reductions         redundant irredundant
c          MB      restarts            trail    variables
c           level        conflicts         glue     remaining
c 
c W 116.46 25 11 97 46105 1431128 58223 57% 9 3892 523 44%
c - 118.80 25 11 98 47430 1455387 54825 57% 9 3892 523 44%
c i 121.00 25 10 98 48046 1480429 69933 57% 9 3892 522 44%
c s 121.11 25 10 98 48046 1480429 67097 57% 9 3876 522 44%
c ^ 121.12 25 10 98 48046 1480429 67097 57% 9 3876 522 44%
c - 121.53 16 10 99 48189 1485088 37664 57% 9 3876 522 44%
c s 121.66 16 10 99 48189 1485088 36334 57% 9 3876 522 44%
c w 121.74 16 10 99 48189 1485088 36328 57% 9 3876 522 44%
c t 121.74 16 10 99 48189 1485088 36326 57% 9 3876 522 44%
c F 121.74 16 10 99 48189 1485130 36348 57% 9 3876 522 44%
c p 123.15 16 11 99 49851 1500039 46441 57% 9 3876 522 44%
c - 124.41 19 10 100 50388 1515092 47961 58% 9 3876 522 44%
c e 124.42 19 10 100 50388 1515142 44777 58% 9 3926 508 43%
c s 124.49 19 10 100 50388 1515142 44379 58% 9 3926 508 43%
c B 126.57 19 10 100 51435 1540134 60172 57% 8 3926 508 43%
c - 127.11 23 10 101 52219 1545392 51468 57% 9 3926 508 43%
c - 129.71 23 10 102 53808 1575992 54521 56% 8 3926 508 43%
c W 131.80 23 10 102 55056 1596135 66796 56% 9 3926 508 43%
c - 132.84 23 10 103 56027 1606892 55617 56% 9 3926 508 43%
c p 134.41 23 10 103 56616 1625039 66560 56% 8 3926 508 43%
c 
c  seconds    reductions         redundant irredundant
c          MB       restarts            trail    variables
c           level         conflicts         glue     remaining
c 
c i 134.47 23 10 103 56616 1625765 66938 56% 8 3926 507 43%
c s 134.57 23 10 103 56616 1625765 64130 56% 8 3926 507 43%
c v 134.58 23 10 103 56616 1625765 64130 56% 8 3926 507 43%
c w 134.64 23 10 103 56616 1625765 64082 56% 8 3926 507 43%
c t 134.64 23 10 103 56616 1625765 64080 56% 8 3926 507 43%
c s 134.75 23 10 103 56616 1625765 63913 56% 8 3904 507 43%
c ^ 134.75 23 10 103 56616 1625765 63913 56% 8 3904 507 43%
c - 135.93 23 10 104 57751 1638092 43853 56% 8 3904 507 43%
c # 137.33 23 10 104 59039 1653137 53571 56% 9 3904 507 43%
c - 139.01 23 10 105 60326 1669592 51784 56% 9 3904 507 43%
c s 139.45 23 10 105 60666 1672884 52489 56% 9 3904 507 43%
c w 139.50 23 10 105 60666 1672884 52486 56% 9 3904 507 43%
c e 139.50 23 10 105 60666 1672884 43921 56% 9 4035 486 41%
c s 139.61 23 10 105 60666 1672884 43857 56% 9 4034 486 41%
c - 142.17 24 11 106 63160 1701394 50006 56% 9 4034 486 41%
c B 142.97 24 11 106 63603 1711138 56162 56% 9 4034 486 41%
c - 145.09 24 11 107 65124 1733494 53931 55% 9 4034 486 41%
c p 147.28 24 11 107 66404 1755039 67836 55% 9 4034 486 41%
c - 148.48 24 11 108 67278 1765895 56859 55% 9 4034 486 41%
c W 149.15 24 11 108 67402 1770139 59434 55% 9 4034 486 41%
c 
c  seconds    reductions         redundant irredundant
c          MB       restarts            trail    variables
c           level         conflicts         glue     remaining
c 
c - 151.84 25 10 109 69052 1798595 57838 55% 9 4034 486 41%
c F 155.01 25 11 109 71468 1830141 78036 54% 9 4034 486 41%
c - 155.18 25 11 110 71634 1831595 59671 54% 9 4034 486 41%
c - 158.40 25 11 111 73855 1864895 59532 55% 9 4034 486 41%
c p 160.74 25 11 111 75624 1890043 75366 55% 9 4034 486 41%
c B 160.86 25 11 111 75631 1891142 75989 55% 9 4034 486 41%
c - 161.61 25 10 112 75836 1898496 59867 55% 9 4034 486 41%
c - 164.93 25 10 113 77829 1932396 60391 54% 9 4034 486 41%
c W 167.31 25 10 113 79105 1953144 73145 54% 9 4034 486 41%
c - 168.53 19 10 114 79456 1966596 60858 54% 9 4034 486 41%
c - 171.85 19 10 115 81505 2001099 62843 54% 9 4034 486 41%
c # 173.22 19 10 115 82280 2016145 71959 54% 8 4034 486 41%
c p 174.72 19 10 115 83402 2030043 81067 54% 9 4034 486 41%
c - 175.37 19 10 116 83694 2035899 64432 54% 9 4034 486 41%
c } 176.39 19 10 116 84090 2047013 71250 54% 8 4034 486 41%
c [ 176.39 19 19 116 84090 2047013 71250 60% 14 4034 486 41%
c i 177.65 19 18 116 84095 2059981 79957 60% 14 4034 485 41%
c s 177.78 19 18 116 84095 2059981 76969 60% 14 4034 485 41%
c v 177.79 19 18 116 84095 2059981 76969 60% 14 4032 485 41%
c w 177.92 19 18 116 84095 2059981 76920 60% 14 4032 485 41%
c 
c  seconds    reductions         redundant  irredundant
c          MB       restarts            trail     variables
c           level         conflicts         glue      remaining
c 
c s 178.05 19 18 116 84095 2059981 76771 60% 14 4019 485 41%
c - 179.05 18 18 117 84101 2070999 46363 60% 14 4019 485 41%
c I 179.86 18 18 117 84105 2080146 52794 60% 14 4019 485 41%
c - 182.43 23 18 118 84111 2106402 60613 58% 14 4019 485 41%
c s 184.08 23 18 118 84117 2120998 72077 58% 14 4019 485 41%
c w 184.14 23 18 118 84117 2120998 72076 58% 14 4019 485 41%
c t 184.14 23 18 118 84117 2120998 72074 58% 14 4019 485 41%
c s 184.23 23 18 118 84117 2120998 72068 58% 14 4019 485 41%
c ^ 184.24 23 18 118 84117 2120998 72068 58% 14 4019 485 41%
c - 186.61 23 18 119 84126 2142102 63820 57% 14 4019 485 41%
c B 186.91 23 17 119 84126 2145150 65901 57% 13 4019 485 41%
c p 190.23 23 18 119 84141 2175048 89554 56% 13 4019 485 41%
c - 190.56 24 17 120 84141 2178105 66848 56% 13 4019 485 41%
c s 191.79 24 17 120 84142 2188117 71905 56% 13 4019 485 41%
c v 191.80 24 17 120 84142 2188117 71905 56% 13 4019 485 41%
c w 191.86 24 17 120 84142 2188117 71900 56% 13 4019 485 41%
c e 191.87 24 17 120 84142 2188117 63597 56% 13 4261 466 40%
c s 192.07 24 17 120 84142 2188117 62682 56% 13 4257 466 40%
c W 195.02 24 17 120 84143 2211151 80115 56% 13 4257 466 40%
c - 195.42 20 17 121 84143 2214405 60454 55% 13 4257 466 40%
c 
c  seconds    reductions         redundant  irredundant
c          MB       restarts            trail     variables
c           level         conflicts         glue      remaining
c 
c - 199.34 26 17 122 84144 2251007 64527 55% 13 4257 466 40%
c s 201.15 26 16 122 84144 2264713 72617 54% 13 4257 466 40%
c v 201.17 26 16 122 84144 2264713 72617 54% 13 4256 466 40%
c w 201.22 26 16 122 84144 2264713 72613 54% 13 4256 466 40%
c s 201.44 26 16 122 84144 2264713 72064 54% 13 4256 466 40%
c i 201.64 26 16 122 84144 2266070 72849 54% 12 4256 455 39%
c O 202.77 26 17 122 84144 2278152 83096 54% 13 4256 455 39%
c - 203.80 26 16 123 84144 2287908 42870 54% 13 4082 455 39%
c i 206.15 26 15 123 84145 2312537 59913 54% 12 4082 454 39%
c p 207.34 26 16 123 84145 2325048 69958 54% 12 4082 454 39%
c - 207.37 26 16 124 84145 2325108 33859 54% 12 4064 454 39%
c B 209.21 26 16 124 84145 2346153 51239 54% 12 4064 454 39%
c s 209.40 26 16 124 84145 2347683 52085 54% 12 4046 454 39%
c v 209.41 26 16 124 84145 2347683 52085 54% 12 4038 454 39%
c w 209.46 26 16 124 84145 2347683 52083 54% 12 4038 454 39%
c t 209.46 26 16 124 84145 2347683 52081 54% 12 4038 454 39%
c e 209.46 26 16 124 84145 2347683 46589 54% 12 4066 450 38%
c s 209.50 26 16 124 84145 2347683 46553 54% 12 4059 450 38%
c - 210.85 26 16 125 84145 2362609 50389 54% 12 4059 450 38%
c i 212.34 26 16 125 84145 2378611 61887 54% 12 4059 449 38%
c 
c  seconds    reductions         redundant  irredundant
c          MB       restarts            trail     variables
c           level         conflicts         glue      remaining
c 
c - 214.53 26 16 126 84145 2400410 42828 54% 12 4034 449 38%
c W 216.35 26 16 126 84145 2415156 53281 54% 12 4034 449 38%
c i 217.38 26 15 126 84145 2425944 60655 54% 12 4034 448 38%
c s 218.54 26 15 126 84150 2436531 67559 54% 12 4034 448 38%
c v 218.55 26 15 126 84150 2436531 67559 54% 12 4022 448 38%
c w 218.61 26 15 126 84150 2436531 67550 54% 12 4022 448 38%
c e 218.62 26 15 126 84150 2436531 66305 54% 12 4018 447 38%
c s 218.74 26 15 126 84150 2436531 65774 54% 12 4017 447 38%
c - 218.95 26 15 127 84151 2438511 32500 54% 12 4017 447 38%
c i 220.07 26 15 127 84159 2452360 42340 54% 12 4017 446 38%
c i 220.99 26 15 127 84160 2462453 49563 54% 11 4017 429 36%
c i 221.34 26 14 127 84163 2466609 27107 56% 11 3751 386 33%
c i 221.35 26 14 127 84163 2466815 27245 56% 11 3751 385 33%
c i 221.36 26 14 127 84163 2466897 27282 56% 11 3751 369 31%
c i 221.36 26 14 127 84163 2466907 27287 56% 11 3751 270 23%
c i 221.36 26 14 127 84163 2466908 27287 56% 11 3751 249 21%
c i 221.36 26 14 127 84163 2466909 27287 56% 11 3751 208 18%
c ] 221.36 26 14 127 84163 2466911 27287 56% 11 3751 142 12%
c 0 221.36 26 14 127 84163 2466911 27287 56% 11 3751 142 12%
c 
c --- [ result ] -------------------------------------------------------------
c 
s UNSATISFIABLE
c 
c --- [ run-time profiling ] -------------------------------------------------
c 
c process time taken by individual solving procedures
c (percentage relative to process time for solving)
c 
c       217.03   98.05% search
c       118.15   53.38% unstable
c        95.15   42.99% stable
c         4.32    1.95% simplify
c         3.73    1.69% walk
c         2.73    1.23% subsume
c         0.91    0.41% vivify
c         0.38    0.17% probe
c         0.09    0.04% ternary
c         0.08    0.03% elim
c         0.01    0.00% parse
c         0.00    0.00% lucky
c   =================================
c       221.35  100.00% solve
c 
c last line shows process time for solving
c (percentage relative to total process time)
c 
c --- [ statistics ] ---------------------------------------------------------
c 
c chronological:            346839        14.06 %  of conflicts
c conflicts:               2466911     11144.83    per second
c decisions:               3297802     14898.56    per second
c eliminated:                   75         6.38 %  of all variables
c fixed:                       416        35.37 %  of all variables
c learned:                 2420234        98.11 %  per conflict
c learned_lits:           93789937       100.00 %  learned literals
c minimized:                     0         0.00 %  learned literals
c shrunken:               42275453        45.07 %  learned literals
c minishrunken:            8131402         8.67 %  learned literals
c otfs:                       1826         0.07 %  of conflict
c propagations:          235237699         1.06 M  per second
c reduced:                 1453283        58.91 %  per conflict
c rephased:                     69     35752.33    interval
c restarts:                  84163        29.31    interval
c stabilizing:                   6        44.67 %  of conflicts
c substituted:                 543        46.17 %  of all variables
c subsumed:                 711804        29.13 %  of all clauses
c strengthened:              41506         1.70 %  of all clauses
c ternary:                     287         2.23 %  of resolved
c trail reuses:                  0         0.00 %  of incremental calls
c vivified:                    492         0.02 %  of all clauses
c walked:                       22    112132.32    interval
c weakened:                   1671         2.32    average size
c 
c seconds are measured in process time for solving
c 
c --- [ resources ] ----------------------------------------------------------
c 
c total process time since initialization:       221.36    seconds
c total real time since initialization:          221.37    seconds
c maximum resident set size of process:           29.48    MB
c 
c --- [ shutting down ] ------------------------------------------------------
c 
c exit 20
